602,-97
765,-127
602,-97
515,-107
491,32
361,243
755,178
874,140
545,139
515,-107
504,59
491,32
709,583
847,919
681,826
927,745
773,691
945,770
966,498
622,397
596,379
361,243
168,572
444,443
593,392
738,424
972,617
533,554
168,240
254,189
755,178
778,336
681,376
709,583
681,826
611,850
524,891
533,554
593,392
600,246
596,379
927,745
773,691
769,392
708,321
622,397
597,322
178,327
